
Gurobi 10.0.3 (linux64, gurobi_cl) logging started Thu Nov  2 11:36:25 2023

Set parameter Username
Set parameter TimeLimit to value 3600
Set parameter LogFile to value "RCPSP_745.log"
Set parameter Threads to value 32
Academic license - for non-commercial use only - expires 2024-10-30
Using license file /home/jrivera6/gurobi-licenses/v1003/compute-0-35/gurobi.lic

Gurobi Optimizer version 10.0.3 build v10.0.3rc0 (linux64)
Copyright (c) 2023, Gurobi Optimization, LLC

Read MPS format model from file RCPSP_745.mps
Reading time = 0.03 seconds
RCPSP_745: 19643 rows, 7750 columns, 68318 nonzeros

CPU model: Intel(R) Xeon(R) Gold 6130 CPU @ 2.10GHz, instruction set [SSE2|AVX|AVX2|AVX512]
Thread count: 32 physical cores, 32 logical processors, using up to 32 threads

Optimize a model with 19643 rows, 7750 columns and 68318 nonzeros
Model fingerprint: 0x7665e5c6
Variable types: 62 continuous, 7688 integer (7688 binary)
Coefficient statistics:
  Matrix range     [1e+00, 3e+02]
  Objective range  [1e+00, 1e+00]
  Bounds range     [1e+00, 1e+00]
  RHS range        [1e+00, 4e+02]
Presolve removed 8274 rows and 3040 columns
Presolve time: 3.92s
Presolved: 11369 rows, 4710 columns, 40949 nonzeros
Variable types: 61 continuous, 4649 integer (4649 binary)

Root relaxation: objective 7.800000e+01, 1481 iterations, 0.03 seconds (0.01 work units)

    Nodes    |    Current Node    |     Objective Bounds      |     Work
 Expl Unexpl |  Obj  Depth IntInf | Incumbent    BestBd   Gap | It/Node Time

     0     0   78.00000    0    2          -   78.00000      -     -    4s
H    0     0                      80.0000000   78.00000  2.50%     -    6s
     0     0   78.00000    0   33   80.00000   78.00000  2.50%     -    7s
     0     0   78.00000    0    4   80.00000   78.00000  2.50%     -   13s
H    0     0                      79.0000000   78.00000  1.27%     -   13s
     0     0   78.00000    0  178   79.00000   78.00000  1.27%     -   20s
H    0     0                      78.0000000   78.00000  0.00%     -   26s
     0     0   78.00000    0  115   78.00000   78.00000  0.00%     -   26s

Cutting planes:
  Gomory: 38
  Cover: 85
  Implied bound: 60
  Clique: 165
  MIR: 148
  StrongCG: 1
  RLT: 178
  Relax-and-lift: 31

Explored 1 nodes (6594 simplex iterations) in 26.54 seconds (3.47 work units)
Thread count was 32 (of 32 available processors)

Solution count 3: 78 79 80 

Optimal solution found (tolerance 1.00e-04)
Best objective 7.800000000000e+01, best bound 7.800000000000e+01, gap 0.0000%

Wrote result file 'RCPSP_745.sol'

